0.17/0.14	c :verbosity 0
0.17/0.14	c :decimal-scale 5
55.75/43.76	o 263.0 259.0 193.0
67.28/54.33	o 214.0 250.0 201.0
72.20/58.85	o 290.0 261.0 192.0
76.43/62.18	o 258.0 268.0 177.0
81.98/67.17	o 251.0 269.0 188.0
83.45/68.49	o 285.0 270.0 176.0
108.16/90.36	o 298.0 276.0 175.0
112.56/93.75	o 182.0 276.0 119.0
149.29/126.51	o 199.0 196.0 220.0
159.41/135.58	o 310.0 242.0 207.0
184.83/155.41	o 314.0 253.0 157.0
238.93/198.88	o 321.0 249.0 206.0
275.76/228.47	o 326.0 243.0 162.0
291.41/240.98	o 328.0 238.0 207.0
354.91/291.47	o 336.0 241.0 206.0
393.63/321.41	o 216.0 316.0 113.0
467.53/378.81	o 353.0 245.0 161.0
474.21/384.06	o 197.0 330.0 100.0
532.55/428.68	o 369.0 328.0 93.0
573.54/459.11	o 179.0 357.0 283.0
601.79/479.94	o 392.0 239.0 143.0
609.69/485.81	o 231.0 370.0 94.0
619.86/493.33	o 399.0 225.0 175.0
633.39/502.80	o 292.0 156.0 316.0
639.37/507.19	o 319.0 383.0 86.0
645.52/511.66	o 265.0 169.0 322.0
649.44/514.54	o 412.0 194.0 240.0
719.35/565.17	o 177.0 422.0 251.0
812.74/633.28	o 507.0 188.0 293.0
853.11/663.55	o 430.0 152.0 475.0
853.49/663.88	o 398.0 154.0 475.0
876.72/680.58	s OPTIMUM
876.72/680.58	v -x1 -x2 -x3 x4 -x5 -x6 -x7 -x8 -x9 -x10 -x11 -x12 -x13 -x14 -x15 -x16 -x17 x18 x19 -x20 -x21 -x22 -x23 -x24 -x25 -x26 -x27 -x28 -x29 -x30 -x31 -x32 -x33 -x34 -x35 -x36 -x37 -x38 -x39 -x40 -x41 -x42 -x43 -x44 -x45 -x46 -x47 -x48 -x49 -x50 -x51 -x52 -x53 x54 -x55 -x56 -x57 -x58 -x59 -x60 -x61 -x62 -x63 -x64 -x65 -x66 -x67 -x68 -x69 x70 -x71 x72 -x73 -x74 -x75 -x76 -x77 -x78 -x79 -x80 -x81 -x82 -x83 -x84 -x85 -x86 -x87 -x88 -x89 -x90 -x91 -x92 -x93 x94 -x95 x96 -x97 -x98 -x99 -x100
876.72/680.58	o 263.0 259.0 193.0
876.72/680.58	v -x1 -x2 -x3 x4 -x5 -x6 -x7 -x8 -x9 -x10 -x11 -x12 -x13 -x14 -x15 -x16 -x17 x18 -x19 -x20 -x21 -x22 -x23 -x24 -x25 -x26 -x27 -x28 -x29 -x30 -x31 -x32 -x33 -x34 -x35 -x36 -x37 -x38 -x39 -x40 -x41 x42 -x43 -x44 -x45 -x46 -x47 -x48 -x49 -x50 -x51 x52 -x53 x54 -x55 -x56 -x57 -x58 -x59 -x60 -x61 -x62 -x63 -x64 -x65 -x66 -x67 -x68 -x69 -x70 -x71 -x72 -x73 -x74 -x75 -x76 -x77 -x78 -x79 -x80 -x81 -x82 -x83 -x84 -x85 -x86 -x87 -x88 -x89 -x90 -x91 -x92 -x93 x94 -x95 x96 -x97 -x98 -x99 -x100
876.72/680.58	o 214.0 250.0 201.0
876.72/680.58	v -x1 -x2 -x3 x4 -x5 -x6 -x7 -x8 -x9 -x10 -x11 -x12 -x13 -x14 -x15 -x16 -x17 x18 x19 -x20 -x21 -x22 -x23 -x24 -x25 -x26 -x27 -x28 -x29 -x30 -x31 -x32 -x33 -x34 -x35 -x36 -x37 -x38 -x39 -x40 -x41 -x42 -x43 -x44 -x45 -x46 -x47 -x48 -x49 -x50 -x51 -x52 -x53 x54 -x55 -x56 -x57 -x58 -x59 x60 -x61 -x62 -x63 -x64 -x65 -x66 -x67 -x68 -x69 x70 -x71 x72 -x73 -x74 -x75 -x76 -x77 -x78 -x79 -x80 -x81 -x82 -x83 -x84 -x85 -x86 -x87 -x88 -x89 -x90 -x91 -x92 -x93 x94 -x95 -x96 -x97 -x98 -x99 -x100
876.72/680.58	o 290.0 261.0 192.0
876.72/680.58	v -x1 -x2 -x3 x4 -x5 -x6 -x7 -x8 -x9 -x10 x11 -x12 -x13 -x14 -x15 -x16 -x17 x18 x19 -x20 -x21 -x22 -x23 -x24 -x25 -x26 -x27 -x28 -x29 -x30 -x31 -x32 -x33 -x34 -x35 -x36 -x37 -x38 -x39 -x40 -x41 -x42 -x43 -x44 -x45 -x46 -x47 -x48 -x49 -x50 -x51 -x52 -x53 x54 -x55 -x56 -x57 -x58 -x59 -x60 -x61 -x62 -x63 -x64 -x65 -x66 -x67 -x68 -x69 x70 -x71 -x72 -x73 -x74 -x75 -x76 -x77 -x78 -x79 -x80 -x81 -x82 -x83 -x84 -x85 -x86 -x87 -x88 -x89 -x90 -x91 -x92 -x93 x94 -x95 x96 -x97 -x98 -x99 -x100
876.72/680.58	o 258.0 268.0 177.0
876.72/680.58	v -x1 -x2 -x3 x4 -x5 -x6 -x7 -x8 -x9 -x10 -x11 -x12 -x13 -x14 -x15 -x16 -x17 x18 x19 -x20 -x21 -x22 -x23 -x24 -x25 -x26 -x27 -x28 -x29 -x30 -x31 x32 -x33 -x34 -x35 -x36 -x37 -x38 -x39 -x40 -x41 -x42 -x43 -x44 -x45 -x46 -x47 -x48 -x49 -x50 -x51 -x52 -x53 -x54 -x55 -x56 -x57 -x58 -x59 -x60 -x61 -x62 -x63 -x64 -x65 -x66 -x67 -x68 -x69 -x70 -x71 x72 -x73 -x74 -x75 -x76 -x77 -x78 -x79 -x80 -x81 -x82 -x83 -x84 -x85 -x86 -x87 -x88 -x89 -x90 -x91 x92 -x93 -x94 -x95 x96 -x97 -x98 -x99 -x100
876.72/680.58	o 251.0 269.0 188.0
876.72/680.58	v -x1 -x2 -x3 x4 -x5 -x6 -x7 -x8 -x9 -x10 x11 -x12 -x13 -x14 -x15 -x16 -x17 x18 x19 -x20 -x21 -x22 -x23 -x24 -x25 -x26 -x27 -x28 -x29 -x30 -x31 -x32 -x33 -x34 -x35 -x36 -x37 -x38 -x39 -x40 -x41 -x42 -x43 -x44 -x45 -x46 -x47 -x48 -x49 -x50 -x51 -x52 -x53 x54 -x55 -x56 -x57 -x58 -x59 x60 -x61 -x62 -x63 -x64 -x65 -x66 -x67 -x68 -x69 x70 -x71 -x72 -x73 -x74 -x75 -x76 -x77 -x78 -x79 -x80 -x81 -x82 -x83 -x84 -x85 -x86 -x87 -x88 -x89 -x90 -x91 -x92 -x93 x94 -x95 -x96 -x97 -x98 -x99 -x100
876.72/680.58	o 285.0 270.0 176.0
876.72/680.58	v -x1 -x2 -x3 x4 -x5 -x6 -x7 x8 -x9 -x10 -x11 -x12 -x13 -x14 -x15 -x16 -x17 x18 x19 -x20 -x21 -x22 -x23 -x24 -x25 -x26 -x27 -x28 -x29 -x30 -x31 -x32 -x33 -x34 -x35 -x36 -x37 -x38 -x39 -x40 -x41 -x42 -x43 -x44 -x45 -x46 -x47 -x48 -x49 -x50 -x51 -x52 -x53 -x54 -x55 -x56 -x57 -x58 -x59 -x60 -x61 -x62 -x63 -x64 -x65 -x66 -x67 -x68 -x69 -x70 -x71 -x72 -x73 -x74 -x75 -x76 -x77 -x78 -x79 -x80 -x81 -x82 -x83 -x84 -x85 -x86 -x87 -x88 -x89 -x90 -x91 x92 -x93 -x94 -x95 x96 -x97 -x98 -x99 -x100
876.72/680.58	o 182.0 276.0 119.0
876.72/680.58	v -x1 -x2 -x3 x4 -x5 -x6 -x7 -x8 -x9 -x10 -x11 -x12 -x13 -x14 -x15 -x16 -x17 x18 x19 -x20 -x21 -x22 -x23 -x24 -x25 -x26 -x27 -x28 -x29 -x30 -x31 -x32 -x33 -x34 -x35 -x36 -x37 -x38 -x39 -x40 -x41 -x42 -x43 -x44 -x45 -x46 -x47 -x48 -x49 -x50 -x51 x52 -x53 x54 -x55 -x56 -x57 -x58 -x59 -x60 -x61 -x62 -x63 -x64 -x65 -x66 -x67 -x68 -x69 -x70 -x71 -x72 -x73 -x74 -x75 -x76 -x77 -x78 -x79 -x80 -x81 -x82 -x83 -x84 -x85 -x86 -x87 -x88 -x89 -x90 -x91 -x92 -x93 x94 -x95 x96 -x97 -x98 -x99 -x100
876.72/680.58	o 199.0 196.0 220.0
876.72/680.58	v -x1 -x2 -x3 x4 -x5 -x6 -x7 -x8 -x9 -x10 -x11 -x12 -x13 -x14 -x15 -x16 -x17 x18 x19 -x20 -x21 -x22 -x23 -x24 -x25 -x26 -x27 -x28 -x29 -x30 -x31 -x32 -x33 -x34 -x35 -x36 -x37 -x38 -x39 -x40 -x41 -x42 -x43 -x44 -x45 -x46 -x47 -x48 -x49 -x50 -x51 -x52 -x53 -x54 -x55 -x56 -x57 -x58 -x59 -x60 -x61 -x62 -x63 -x64 -x65 -x66 -x67 -x68 -x69 -x70 -x71 -x72 -x73 -x74 -x75 -x76 -x77 -x78 -x79 -x80 -x81 -x82 -x83 -x84 -x85 -x86 -x87 -x88 -x89 x90 -x91 x92 -x93 -x94 -x95 x96 -x97 -x98 -x99 x100
876.72/680.58	o 310.0 242.0 207.0
876.72/680.58	v -x1 -x2 -x3 x4 -x5 -x6 -x7 -x8 -x9 -x10 -x11 -x12 -x13 -x14 -x15 -x16 -x17 x18 x19 -x20 -x21 -x22 -x23 -x24 -x25 -x26 -x27 -x28 -x29 -x30 -x31 x32 -x33 -x34 -x35 -x36 -x37 -x38 -x39 -x40 -x41 -x42 -x43 -x44 -x45 -x46 -x47 -x48 -x49 -x50 -x51 -x52 -x53 -x54 -x55 -x56 -x57 -x58 -x59 -x60 -x61 -x62 -x63 -x64 -x65 -x66 -x67 -x68 -x69 -x70 -x71 -x72 -x73 -x74 -x75 -x76 -x77 -x78 -x79 -x80 -x81 -x82 -x83 -x84 -x85 -x86 -x87 -x88 -x89 -x90 -x91 x92 -x93 -x94 -x95 x96 -x97 -x98 -x99 x100
876.72/680.58	o 314.0 253.0 157.0
876.72/680.58	v -x1 -x2 -x3 x4 -x5 -x6 -x7 -x8 -x9 -x10 -x11 -x12 -x13 -x14 -x15 -x16 -x17 x18 x19 -x20 -x21 -x22 -x23 -x24 -x25 -x26 -x27 -x28 -x29 -x30 -x31 -x32 x33 -x34 -x35 -x36 -x37 -x38 -x39 -x40 -x41 -x42 -x43 -x44 -x45 -x46 -x47 -x48 -x49 -x50 -x51 x52 -x53 x54 -x55 -x56 -x57 -x58 -x59 -x60 -x61 -x62 -x63 -x64 -x65 -x66 -x67 -x68 -x69 x70 -x71 -x72 -x73 -x74 -x75 -x76 -x77 -x78 -x79 -x80 -x81 -x82 -x83 -x84 -x85 -x86 -x87 -x88 -x89 -x90 -x91 -x92 -x93 x94 -x95 -x96 -x97 -x98 -x99 -x100
876.72/680.58	o 321.0 249.0 206.0
876.72/680.58	v -x1 -x2 -x3 x4 -x5 -x6 -x7 -x8 -x9 -x10 -x11 -x12 -x13 -x14 -x15 -x16 -x17 x18 x19 -x20 -x21 -x22 -x23 -x24 -x25 -x26 -x27 -x28 -x29 -x30 -x31 -x32 -x33 -x34 -x35 -x36 -x37 -x38 -x39 -x40 -x41 -x42 -x43 -x44 -x45 -x46 -x47 -x48 -x49 -x50 -x51 -x52 -x53 x54 -x55 -x56 -x57 -x58 -x59 -x60 -x61 -x62 -x63 -x64 -x65 -x66 -x67 -x68 -x69 x70 -x71 -x72 -x73 -x74 -x75 -x76 -x77 -x78 -x79 -x80 -x81 -x82 -x83 -x84 -x85 -x86 -x87 -x88 -x89 -x90 -x91 -x92 -x93 x94 -x95 x96 -x97 -x98 -x99 x100
876.72/680.58	o 326.0 243.0 162.0
876.72/680.58	v -x1 -x2 -x3 x4 -x5 -x6 -x7 -x8 -x9 -x10 -x11 -x12 -x13 -x14 -x15 -x16 -x17 x18 x19 -x20 -x21 -x22 -x23 -x24 -x25 -x26 -x27 -x28 -x29 -x30 -x31 -x32 -x33 -x34 -x35 -x36 -x37 -x38 -x39 -x40 -x41 -x42 -x43 -x44 -x45 -x46 -x47 -x48 -x49 -x50 -x51 -x52 -x53 x54 -x55 -x56 -x57 -x58 -x59 -x60 -x61 -x62 -x63 -x64 -x65 -x66 -x67 -x68 -x69 x70 -x71 -x72 -x73 -x74 -x75 -x76 -x77 -x78 -x79 -x80 -x81 -x82 x83 -x84 -x85 -x86 -x87 -x88 -x89 -x90 -x91 -x92 -x93 x94 -x95 -x96 -x97 -x98 -x99 x100
876.72/680.58	o 328.0 238.0 207.0
876.72/680.59	v -x1 -x2 -x3 x4 -x5 -x6 -x7 -x8 -x9 -x10 -x11 -x12 -x13 -x14 -x15 -x16 -x17 x18 x19 x20 -x21 -x22 -x23 -x24 -x25 -x26 -x27 -x28 -x29 -x30 -x31 -x32 -x33 -x34 -x35 -x36 -x37 -x38 -x39 -x40 -x41 -x42 -x43 -x44 -x45 -x46 -x47 -x48 -x49 -x50 -x51 -x52 -x53 x54 -x55 -x56 -x57 -x58 -x59 -x60 -x61 -x62 -x63 -x64 -x65 -x66 -x67 -x68 -x69 x70 -x71 x72 -x73 -x74 -x75 -x76 -x77 -x78 -x79 -x80 -x81 -x82 -x83 -x84 -x85 -x86 -x87 -x88 -x89 -x90 -x91 -x92 -x93 x94 -x95 -x96 -x97 -x98 -x99 -x100
876.72/680.59	o 336.0 241.0 206.0
876.72/680.59	v -x1 -x2 -x3 x4 x5 -x6 -x7 x8 -x9 -x10 -x11 -x12 -x13 -x14 -x15 -x16 -x17 -x18 x19 -x20 -x21 -x22 -x23 -x24 -x25 -x26 -x27 -x28 -x29 -x30 -x31 -x32 -x33 -x34 -x35 -x36 -x37 -x38 -x39 -x40 -x41 -x42 -x43 -x44 -x45 -x46 -x47 -x48 -x49 -x50 -x51 -x52 -x53 -x54 -x55 -x56 -x57 -x58 -x59 -x60 -x61 -x62 -x63 -x64 -x65 -x66 -x67 -x68 -x69 -x70 -x71 -x72 -x73 -x74 -x75 -x76 -x77 -x78 -x79 -x80 -x81 -x82 -x83 -x84 -x85 -x86 -x87 -x88 -x89 -x90 -x91 x92 -x93 -x94 -x95 x96 -x97 -x98 -x99 -x100
876.72/680.59	o 216.0 316.0 113.0
876.72/680.59	v -x1 -x2 -x3 x4 -x5 -x6 -x7 -x8 -x9 -x10 -x11 -x12 -x13 -x14 -x15 -x16 -x17 x18 x19 -x20 -x21 -x22 -x23 -x24 -x25 -x26 -x27 -x28 -x29 -x30 -x31 -x32 -x33 -x34 -x35 -x36 -x37 -x38 -x39 -x40 -x41 -x42 -x43 -x44 -x45 -x46 -x47 -x48 -x49 -x50 -x51 -x52 -x53 x54 -x55 -x56 -x57 -x58 -x59 x60 -x61 -x62 -x63 -x64 -x65 -x66 -x67 -x68 -x69 x70 -x71 -x72 -x73 -x74 -x75 -x76 -x77 -x78 -x79 -x80 -x81 -x82 -x83 -x84 -x85 -x86 -x87 -x88 -x89 -x90 -x91 -x92 -x93 x94 -x95 -x96 -x97 -x98 -x99 x100
876.72/680.59	o 353.0 245.0 161.0
876.72/680.59	v -x1 -x2 -x3 x4 -x5 -x6 -x7 x8 -x9 -x10 -x11 -x12 -x13 -x14 -x15 -x16 -x17 x18 -x19 -x20 -x21 -x22 -x23 -x24 -x25 -x26 -x27 -x28 -x29 -x30 -x31 -x32 -x33 -x34 -x35 -x36 -x37 -x38 -x39 -x40 -x41 x42 -x43 -x44 -x45 -x46 -x47 -x48 -x49 -x50 -x51 -x52 -x53 -x54 -x55 -x56 -x57 -x58 -x59 -x60 -x61 -x62 -x63 -x64 -x65 -x66 -x67 -x68 -x69 -x70 -x71 -x72 -x73 -x74 -x75 -x76 -x77 -x78 -x79 -x80 -x81 -x82 -x83 -x84 -x85 -x86 -x87 -x88 -x89 -x90 -x91 x92 -x93 -x94 -x95 x96 -x97 -x98 -x99 -x100
876.72/680.59	o 197.0 330.0 100.0
876.72/680.59	v -x1 -x2 -x3 x4 -x5 -x6 -x7 -x8 -x9 -x10 -x11 -x12 -x13 -x14 -x15 -x16 -x17 x18 -x19 -x20 -x21 -x22 -x23 -x24 -x25 -x26 -x27 -x28 -x29 -x30 -x31 -x32 x33 -x34 -x35 -x36 -x37 -x38 -x39 -x40 -x41 x42 -x43 -x44 -x45 -x46 -x47 -x48 -x49 -x50 -x51 -x52 -x53 -x54 -x55 -x56 -x57 -x58 -x59 -x60 -x61 -x62 -x63 -x64 -x65 -x66 -x67 -x68 -x69 x70 -x71 -x72 -x73 -x74 -x75 -x76 -x77 -x78 -x79 -x80 -x81 -x82 -x83 -x84 -x85 -x86 -x87 -x88 -x89 -x90 -x91 x92 -x93 -x94 -x95 -x96 -x97 -x98 -x99 x100
876.72/680.59	o 369.0 328.0 93.0
876.72/680.59	v -x1 -x2 -x3 x4 -x5 x6 -x7 -x8 -x9 -x10 -x11 -x12 -x13 -x14 -x15 -x16 -x17 x18 -x19 -x20 -x21 -x22 -x23 -x24 -x25 -x26 -x27 -x28 -x29 -x30 -x31 -x32 -x33 -x34 -x35 -x36 -x37 -x38 -x39 -x40 -x41 -x42 -x43 -x44 -x45 -x46 -x47 -x48 -x49 -x50 -x51 x52 -x53 -x54 -x55 -x56 -x57 -x58 -x59 -x60 -x61 -x62 -x63 -x64 -x65 -x66 -x67 -x68 -x69 -x70 -x71 -x72 -x73 -x74 -x75 -x76 -x77 -x78 -x79 -x80 -x81 -x82 -x83 -x84 -x85 -x86 -x87 -x88 -x89 -x90 -x91 x92 -x93 -x94 -x95 x96 x97 -x98 -x99 -x100
876.72/680.59	o 179.0 357.0 283.0
876.72/680.59	v -x1 -x2 -x3 x4 -x5 -x6 -x7 -x8 -x9 -x10 -x11 -x12 -x13 -x14 -x15 -x16 -x17 x18 x19 -x20 -x21 -x22 -x23 -x24 -x25 -x26 -x27 -x28 -x29 -x30 -x31 -x32 x33 -x34 -x35 -x36 -x37 -x38 -x39 -x40 -x41 -x42 -x43 -x44 -x45 -x46 -x47 -x48 -x49 -x50 -x51 -x52 -x53 x54 -x55 -x56 -x57 -x58 -x59 -x60 -x61 -x62 -x63 -x64 -x65 -x66 -x67 -x68 -x69 x70 -x71 -x72 -x73 -x74 -x75 -x76 -x77 -x78 -x79 -x80 -x81 -x82 -x83 -x84 -x85 -x86 -x87 -x88 -x89 -x90 -x91 -x92 -x93 x94 -x95 -x96 -x97 -x98 -x99 x100
876.72/680.59	o 392.0 239.0 143.0
876.72/680.59	v -x1 -x2 -x3 x4 x5 -x6 -x7 x8 -x9 -x10 -x11 -x12 -x13 -x14 -x15 -x16 -x17 -x18 -x19 -x20 -x21 -x22 -x23 -x24 -x25 -x26 -x27 -x28 -x29 -x30 -x31 -x32 -x33 -x34 -x35 -x36 -x37 -x38 -x39 -x40 -x41 x42 -x43 -x44 -x45 -x46 -x47 -x48 -x49 -x50 -x51 -x52 -x53 -x54 -x55 -x56 -x57 -x58 -x59 -x60 -x61 -x62 -x63 -x64 -x65 -x66 -x67 -x68 -x69 -x70 -x71 -x72 -x73 -x74 -x75 -x76 -x77 -x78 -x79 -x80 -x81 -x82 -x83 -x84 -x85 -x86 -x87 -x88 -x89 -x90 -x91 x92 -x93 -x94 -x95 x96 -x97 -x98 -x99 -x100
876.72/680.59	o 231.0 370.0 94.0
876.72/680.59	v -x1 -x2 -x3 x4 -x5 -x6 -x7 -x8 -x9 -x10 -x11 -x12 -x13 -x14 -x15 -x16 -x17 x18 x19 x20 -x21 -x22 -x23 -x24 -x25 -x26 -x27 -x28 -x29 -x30 -x31 -x32 -x33 -x34 -x35 -x36 -x37 -x38 -x39 -x40 -x41 -x42 -x43 -x44 -x45 -x46 -x47 -x48 -x49 -x50 -x51 -x52 -x53 x54 -x55 -x56 -x57 -x58 -x59 -x60 -x61 -x62 -x63 -x64 -x65 -x66 -x67 -x68 -x69 x70 -x71 -x72 -x73 -x74 -x75 -x76 -x77 -x78 -x79 -x80 -x81 -x82 -x83 -x84 -x85 -x86 -x87 -x88 -x89 -x90 -x91 -x92 -x93 x94 -x95 -x96 -x97 -x98 -x99 x100
876.72/680.59	o 399.0 225.0 175.0
876.72/680.59	v -x1 -x2 -x3 x4 -x5 -x6 -x7 -x8 -x9 -x10 -x11 -x12 -x13 -x14 -x15 x16 -x17 x18 x19 -x20 -x21 -x22 -x23 -x24 -x25 -x26 -x27 -x28 -x29 -x30 -x31 -x32 -x33 -x34 -x35 -x36 -x37 -x38 -x39 -x40 -x41 -x42 -x43 -x44 -x45 -x46 -x47 -x48 -x49 -x50 -x51 x52 -x53 x54 -x55 -x56 -x57 -x58 -x59 -x60 -x61 -x62 -x63 -x64 -x65 -x66 -x67 -x68 -x69 -x70 -x71 -x72 -x73 -x74 -x75 -x76 -x77 -x78 -x79 -x80 -x81 -x82 -x83 -x84 -x85 -x86 -x87 -x88 -x89 x90 -x91 -x92 -x93 -x94 -x95 x96 -x97 -x98 -x99 -x100
876.72/680.59	o 292.0 156.0 316.0
876.72/680.59	v -x1 -x2 -x3 x4 -x5 -x6 -x7 x8 -x9 -x10 -x11 -x12 -x13 -x14 -x15 -x16 -x17 x18 -x19 -x20 -x21 -x22 -x23 -x24 -x25 -x26 -x27 -x28 -x29 -x30 -x31 -x32 x33 -x34 -x35 -x36 -x37 -x38 -x39 -x40 -x41 x42 -x43 -x44 -x45 -x46 -x47 -x48 -x49 -x50 -x51 -x52 -x53 -x54 -x55 -x56 -x57 -x58 -x59 -x60 -x61 -x62 -x63 -x64 -x65 -x66 -x67 -x68 -x69 x70 -x71 -x72 -x73 -x74 -x75 -x76 -x77 -x78 -x79 -x80 -x81 -x82 -x83 -x84 -x85 -x86 -x87 -x88 -x89 -x90 -x91 x92 -x93 -x94 -x95 -x96 -x97 -x98 -x99 -x100
876.72/680.59	o 319.0 383.0 86.0
876.72/680.59	v -x1 -x2 -x3 x4 -x5 -x6 -x7 -x8 -x9 -x10 -x11 -x12 -x13 -x14 -x15 -x16 -x17 x18 x19 -x20 -x21 -x22 -x23 -x24 -x25 -x26 -x27 -x28 -x29 -x30 -x31 -x32 -x33 -x34 -x35 -x36 -x37 -x38 -x39 -x40 -x41 -x42 -x43 -x44 -x45 -x46 -x47 x48 -x49 -x50 -x51 x52 -x53 x54 -x55 -x56 -x57 -x58 -x59 -x60 -x61 -x62 -x63 -x64 -x65 -x66 -x67 -x68 -x69 -x70 -x71 -x72 -x73 -x74 -x75 -x76 -x77 -x78 -x79 -x80 -x81 -x82 -x83 -x84 -x85 -x86 -x87 -x88 -x89 x90 -x91 -x92 -x93 -x94 -x95 x96 -x97 -x98 -x99 -x100
876.72/680.59	o 265.0 169.0 322.0
876.72/680.59	v -x1 -x2 -x3 x4 -x5 -x6 -x7 -x8 -x9 -x10 -x11 -x12 -x13 -x14 -x15 -x16 -x17 x18 x19 -x20 -x21 -x22 -x23 -x24 -x25 -x26 -x27 -x28 -x29 -x30 -x31 -x32 -x33 -x34 -x35 -x36 -x37 -x38 -x39 -x40 -x41 -x42 -x43 -x44 -x45 -x46 -x47 -x48 -x49 -x50 -x51 -x52 -x53 x54 -x55 -x56 -x57 -x58 -x59 -x60 -x61 -x62 -x63 -x64 -x65 -x66 -x67 x68 -x69 x70 -x71 -x72 -x73 -x74 -x75 -x76 -x77 -x78 -x79 -x80 -x81 -x82 -x83 -x84 -x85 -x86 -x87 -x88 -x89 -x90 -x91 -x92 -x93 x94 -x95 -x96 -x97 -x98 -x99 x100
876.72/680.59	o 412.0 194.0 240.0
876.72/680.59	v -x1 -x2 -x3 x4 -x5 x6 -x7 -x8 -x9 -x10 -x11 -x12 -x13 -x14 -x15 -x16 -x17 x18 -x19 -x20 -x21 -x22 -x23 -x24 x25 -x26 -x27 -x28 -x29 -x30 -x31 -x32 -x33 -x34 -x35 -x36 -x37 -x38 -x39 -x40 -x41 -x42 -x43 -x44 -x45 -x46 -x47 -x48 -x49 -x50 -x51 -x52 -x53 -x54 -x55 -x56 -x57 -x58 -x59 -x60 -x61 -x62 -x63 -x64 -x65 -x66 -x67 -x68 -x69 -x70 -x71 -x72 -x73 -x74 -x75 -x76 -x77 -x78 -x79 -x80 -x81 -x82 -x83 -x84 -x85 -x86 -x87 -x88 -x89 -x90 -x91 x92 -x93 -x94 -x95 x96 x97 -x98 -x99 -x100
876.72/680.59	o 177.0 422.0 251.0
876.72/680.59	v -x1 -x2 -x3 x4 -x5 -x6 -x7 -x8 -x9 -x10 -x11 -x12 -x13 -x14 -x15 x16 -x17 x18 x19 -x20 -x21 -x22 -x23 -x24 -x25 -x26 -x27 -x28 -x29 -x30 -x31 -x32 -x33 -x34 -x35 -x36 -x37 -x38 -x39 -x40 -x41 -x42 -x43 -x44 -x45 -x46 -x47 -x48 -x49 -x50 -x51 -x52 -x53 x54 -x55 -x56 -x57 -x58 -x59 -x60 -x61 -x62 -x63 -x64 -x65 -x66 -x67 -x68 -x69 x70 -x71 -x72 -x73 -x74 -x75 -x76 -x77 -x78 x79 -x80 -x81 -x82 -x83 -x84 -x85 -x86 -x87 -x88 -x89 x90 -x91 -x92 -x93 -x94 -x95 -x96 -x97 -x98 -x99 x100
876.72/680.59	o 507.0 188.0 293.0
876.72/680.59	v -x1 -x2 -x3 -x4 -x5 -x6 -x7 -x8 -x9 -x10 -x11 -x12 -x13 -x14 -x15 x16 -x17 x18 x19 -x20 -x21 -x22 -x23 -x24 -x25 -x26 -x27 -x28 -x29 x30 -x31 -x32 -x33 -x34 -x35 -x36 -x37 -x38 -x39 -x40 -x41 -x42 -x43 -x44 -x45 -x46 -x47 -x48 -x49 -x50 x51 x52 -x53 x54 -x55 -x56 -x57 -x58 -x59 -x60 -x61 -x62 -x63 -x64 -x65 -x66 -x67 x68 -x69 -x70 -x71 -x72 -x73 -x74 -x75 -x76 -x77 -x78 -x79 -x80 -x81 -x82 -x83 -x84 -x85 -x86 -x87 -x88 -x89 x90 -x91 -x92 -x93 -x94 -x95 -x96 -x97 -x98 -x99 -x100
876.72/680.59	o 430.0 152.0 475.0
876.72/680.59	v -x1 -x2 -x3 x4 -x5 -x6 -x7 -x8 -x9 -x10 -x11 -x12 -x13 -x14 -x15 x16 -x17 x18 x19 -x20 -x21 -x22 -x23 -x24 -x25 -x26 -x27 x28 -x29 -x30 -x31 -x32 -x33 -x34 -x35 -x36 -x37 -x38 -x39 -x40 -x41 -x42 -x43 -x44 -x45 -x46 -x47 -x48 -x49 -x50 -x51 x52 -x53 x54 -x55 -x56 -x57 -x58 -x59 -x60 -x61 -x62 -x63 -x64 -x65 -x66 -x67 x68 -x69 -x70 -x71 -x72 -x73 -x74 -x75 -x76 -x77 -x78 -x79 -x80 -x81 -x82 -x83 -x84 -x85 -x86 -x87 -x88 -x89 x90 -x91 -x92 -x93 -x94 -x95 -x96 -x97 -x98 -x99 -x100
876.72/680.59	o 398.0 154.0 475.0
876.72/680.59	n 30
